1 1
10 4
9 4
9 6
6 4
7 5
8 8
6 1
1 9
9 7
3 3
2 10
10 9
3 10
10 6
10 7
5 9
5 2
6 6
9 8
9 9
9 2
1 6
3 6
3 8
2 1
1 4
5 4
7 10
1 10
9 3
6 2
10 5
4 9
7 2
2 5
3 4
8 6
9 10
2 6
1 7
8 3
4 6
8 10
4 3
5 3
6 7
6 3
3 9
10 3
5 8
2 2
7 8
4 5
8 4
5 1
10 2
2 3
5 6
7 7
8 2
9 5
5 10
2 4
4 10
7 9
7 1
5 7
3 7
4 2
7 3
1 8
1 5
4 7
8 7
5 5
4 4
4 1
7 4
2 9
6 8
3 2
8 9
10 8
10 10
6 9
2 8
6 10
3 5
7 6
10 1
1 2
6 5
3 1
1 3
8 1
8 5
4 8
9 1
2 7
